61
100
70	8
69	8
68	10
67	7
66	4
65	6
64	10
63	12
62	7
61	7
60	9
59	6
58	10
57	8
56	4
55	7
54	3
53	10
52	10
51	13
50	13
49	7
48	6
47	11
46	9
45	9
44	10
43	7
42	7
41	5
40	9
39	7
38	13
37	7
36	10
35	4
34	7
33	12
32	7
31	6
30	10
29	16
28	3
27	11
26	8
25	7
24	3
23	10
22	4
21	13
20	7
19	7
18	10
17	8
16	8
15	5
14	12
13	8
12	11
11	6
10	8
